p cnf 606 426
c p distribution  0.875 0.125
c p distribution  0.875 0.125
c p distribution  0.875 0.125
c p distribution  0.875 0.125
c p distribution  0.875 0.125
c p distribution  0.875 0.125
c p distribution  0.875 0.125
c p distribution  0.875 0.125
c p distribution  0.875 0.125
c p distribution  0.875 0.125
c p distribution  0.875 0.125
c p distribution  0.875 0.125
c p distribution  0.875 0.125
c p distribution  0.875 0.125
c p distribution  0.875 0.125
c p distribution  0.875 0.125
c p distribution  0.875 0.125
c p distribution  0.875 0.125
c p distribution  0.875 0.125
c p distribution  0.875 0.125
c p distribution  0.875 0.125
c p distribution  0.875 0.125
c p distribution  0.875 0.125
c p distribution  0.875 0.125
c p distribution  0.875 0.125
c p distribution  0.875 0.125
c p distribution  0.875 0.125
c p distribution  0.875 0.125
c p distribution  0.875 0.125
c p distribution  0.875 0.125
c p distribution  0.875 0.125
c p distribution  0.875 0.125
c p distribution  0.875 0.125
c p distribution  0.875 0.125
c p distribution  0.875 0.125
c p distribution  0.875 0.125
c p distribution  0.875 0.125
c p distribution  0.875 0.125
c p distribution  0.875 0.125
c p distribution  0.875 0.125
c p distribution  0.875 0.125
c p distribution  0.875 0.125
c p distribution  0.875 0.125
c p distribution  0.875 0.125
c p distribution  0.875 0.125
c p distribution  0.875 0.125
c p distribution  0.875 0.125
c p distribution  0.875 0.125
c p distribution  0.875 0.125
c p distribution  0.875 0.125
c p distribution  0.875 0.125
c p distribution  0.875 0.125
c p distribution  0.875 0.125
c p distribution  0.875 0.125
c p distribution  0.875 0.125
c p distribution  0.875 0.125
c p distribution  0.875 0.125
c p distribution  0.875 0.125
c p distribution  0.875 0.125
c p distribution  0.875 0.125
c p distribution  0.875 0.125
c p distribution  0.875 0.125
c p distribution  0.875 0.125
c p distribution  0.875 0.125
c p distribution  0.875 0.125
c p distribution  0.875 0.125
c p distribution  0.875 0.125
c p distribution  0.875 0.125
c p distribution  0.875 0.125
c p distribution  0.875 0.125
c p distribution  0.875 0.125
c p distribution  0.875 0.125
c p distribution  0.875 0.125
c p distribution  0.875 0.125
c p distribution  0.875 0.125
c p distribution  0.875 0.125
c p distribution  0.875 0.125
c p distribution  0.875 0.125
c p distribution  0.875 0.125
c p distribution  0.875 0.125
c p distribution  0.875 0.125
c p distribution  0.875 0.125
c p distribution  0.875 0.125
c p distribution  0.875 0.125
c p distribution  0.875 0.125
c p distribution  0.875 0.125
c p distribution  0.875 0.125
c p distribution  0.875 0.125
c p distribution  0.875 0.125
c p distribution  0.875 0.125
c p distribution  0.875 0.125
c p distribution  0.875 0.125
c p distribution  0.875 0.125
c p distribution  0.875 0.125
c p distribution  0.875 0.125
c p distribution  0.875 0.125
c p distribution  0.875 0.125
c p distribution  0.875 0.125
c p distribution  0.875 0.125
c p distribution  0.875 0.125
c p distribution  0.875 0.125
c p distribution  0.875 0.125
c p distribution  0.875 0.125
c p distribution  0.875 0.125
c p distribution  0.875 0.125
c p distribution  0.875 0.125
c p distribution  0.875 0.125
c p distribution  0.875 0.125
c p distribution  0.875 0.125
c p distribution  0.875 0.125
c p distribution  0.875 0.125
c p distribution  0.875 0.125
c p distribution  0.875 0.125
c p distribution  0.875 0.125
c p distribution  0.875 0.125
c p distribution  0.875 0.125
c p distribution  0.875 0.125
c p distribution  0.875 0.125
c p distribution  0.875 0.125
c p distribution  0.875 0.125
c p distribution  0.875 0.125
c p distribution  0.875 0.125
c p distribution  0.875 0.125
c p distribution  0.875 0.125
c p distribution  0.875 0.125
c p distribution  0.875 0.125
c p distribution  0.875 0.125
c p distribution  0.875 0.125
c p distribution  0.875 0.125
c p distribution  0.875 0.125
c p distribution  0.875 0.125
c p distribution  0.875 0.125
c p distribution  0.875 0.125
c p distribution  0.875 0.125
c p distribution  0.875 0.125
c p distribution  0.875 0.125
c p distribution  0.875 0.125
c p distribution  0.875 0.125
c p distribution  0.875 0.125
c p distribution  0.875 0.125
c p distribution  0.875 0.125
c p distribution  0.875 0.125
c p distribution  0.875 0.125
c p distribution  0.875 0.125
c p distribution  0.875 0.125
c p distribution  0.875 0.125
c p distribution  0.875 0.125
c p distribution  0.875 0.125
c p distribution  0.875 0.125
c p distribution  0.875 0.125
c p distribution  0.875 0.125
c p distribution  0.875 0.125
c p distribution  0.875 0.125
c p distribution  0.875 0.125
c p distribution  0.875 0.125
c p distribution  0.875 0.125
c p distribution  0.875 0.125
c p distribution  0.875 0.125
c p distribution  0.875 0.125
c p distribution  0.875 0.125
c p distribution  0.875 0.125
c p distribution  0.875 0.125
c p distribution  0.875 0.125
c p distribution  0.875 0.125
c p distribution  0.875 0.125
c p distribution  0.875 0.125
c p distribution  0.875 0.125
c p distribution  0.875 0.125
c p distribution  0.875 0.125
c p distribution  0.875 0.125
c p distribution  0.875 0.125
c p distribution  0.875 0.125
c p distribution  0.875 0.125
c p distribution  0.875 0.125
c p distribution  0.875 0.125
c p distribution  0.875 0.125
c p distribution  0.875 0.125
c p distribution  0.875 0.125
c p distribution  0.875 0.125
c p distribution  0.875 0.125
c p distribution  0.875 0.125
c p distribution  0.875 0.125
c p distribution  0.875 0.125
c p distribution  0.875 0.125
c p distribution  0.875 0.125
c p distribution  0.875 0.125
c p distribution  0.875 0.125
c p distribution  0.875 0.125
c p distribution  0.875 0.125
c p distribution  0.875 0.125
c p distribution  0.875 0.125
c p distribution  0.875 0.125
c p distribution  0.875 0.125
c p distribution  0.875 0.125
c p distribution  0.875 0.125
c p distribution  0.875 0.125
c p distribution  0.875 0.125
c p distribution  0.875 0.125
c p distribution  0.875 0.125
c p distribution  0.875 0.125
c p distribution  0.875 0.125
c p distribution  0.875 0.125
c p distribution  0.875 0.125
c p distribution  0.875 0.125
c p distribution  0.875 0.125
c p distribution  0.875 0.125
c p distribution  0.875 0.125
c p distribution  0.875 0.125
c p distribution  0.875 0.125
c p distribution  0.875 0.125
c p distribution  0.875 0.125
c p distribution  0.875 0.125
548 0
-516 0
533 -570 -1 0
570 -533 -1 0
519 -433 -3 0
433 -519 -3 0
442 -529 -5 0
529 -442 -5 0
534 -441 -7 0
441 -534 -7 0
598 -528 -9 0
528 -598 -9 0
507 -592 -11 0
592 -507 -11 0
511 -471 -13 0
471 -511 -13 0
499 -460 -15 0
460 -499 -15 0
482 -485 -17 0
485 -482 -17 0
548 -514 -19 0
514 -548 -19 0
563 -601 -21 0
601 -563 -21 0
435 -452 -23 0
452 -435 -23 0
445 -545 -25 0
545 -445 -25 0
596 -510 -27 0
510 -596 -27 0
596 -559 -29 0
559 -596 -29 0
545 -511 -31 0
511 -545 -31 0
557 -468 -33 0
468 -557 -33 0
536 -501 -35 0
501 -536 -35 0
595 -551 -37 0
551 -595 -37 0
495 -570 -39 0
570 -495 -39 0
493 -597 -41 0
597 -493 -41 0
562 -527 -43 0
527 -562 -43 0
571 -430 -45 0
430 -571 -45 0
516 -519 -47 0
519 -516 -47 0
573 -544 -49 0
544 -573 -49 0
464 -477 -51 0
477 -464 -51 0
540 -605 -53 0
605 -540 -53 0
586 -567 -55 0
567 -586 -55 0
446 -543 -57 0
543 -446 -57 0
502 -558 -59 0
558 -502 -59 0
477 -571 -61 0
571 -477 -61 0
533 -495 -63 0
495 -533 -63 0
446 -543 -65 0
543 -446 -65 0
494 -487 -67 0
487 -494 -67 0
427 -600 -69 0
600 -427 -69 0
503 -581 -71 0
581 -503 -71 0
569 -484 -73 0
484 -569 -73 0
530 -473 -75 0
473 -530 -75 0
532 -592 -77 0
592 -532 -77 0
489 -526 -79 0
526 -489 -79 0
565 -587 -81 0
587 -565 -81 0
557 -467 -83 0
467 -557 -83 0
562 -516 -85 0
516 -562 -85 0
562 -497 -87 0
497 -562 -87 0
571 -564 -89 0
564 -571 -89 0
567 -515 -91 0
515 -567 -91 0
533 -594 -93 0
594 -533 -93 0
470 -478 -95 0
478 -470 -95 0
482 -506 -97 0
506 -482 -97 0
537 -535 -99 0
535 -537 -99 0
504 -572 -101 0
572 -504 -101 0
518 -554 -103 0
554 -518 -103 0
604 -582 -105 0
582 -604 -105 0
578 -554 -107 0
554 -578 -107 0
531 -434 -109 0
434 -531 -109 0
425 -518 -111 0
518 -425 -111 0
522 -480 -113 0
480 -522 -113 0
546 -481 -115 0
481 -546 -115 0
484 -445 -117 0
445 -484 -117 0
551 -542 -119 0
542 -551 -119 0
602 -428 -121 0
428 -602 -121 0
525 -597 -123 0
597 -525 -123 0
454 -534 -125 0
534 -454 -125 0
441 -605 -127 0
605 -441 -127 0
428 -597 -129 0
597 -428 -129 0
431 -531 -131 0
531 -431 -131 0
524 -448 -133 0
448 -524 -133 0
566 -466 -135 0
466 -566 -135 0
573 -599 -137 0
599 -573 -137 0
488 -605 -139 0
605 -488 -139 0
436 -516 -141 0
516 -436 -141 0
530 -460 -143 0
460 -530 -143 0
436 -516 -145 0
516 -436 -145 0
426 -558 -147 0
558 -426 -147 0
594 -510 -149 0
510 -594 -149 0
513 -474 -151 0
474 -513 -151 0
539 -521 -153 0
521 -539 -153 0
437 -588 -155 0
588 -437 -155 0
524 -469 -157 0
469 -524 -157 0
553 -508 -159 0
508 -553 -159 0
538 -509 -161 0
509 -538 -161 0
528 -579 -163 0
579 -528 -163 0
436 -516 -165 0
516 -436 -165 0
456 -486 -167 0
486 -456 -167 0
603 -426 -169 0
426 -603 -169 0
425 -462 -171 0
462 -425 -171 0
586 -550 -173 0
550 -586 -173 0
488 -526 -175 0
526 -488 -175 0
459 -592 -177 0
592 -459 -177 0
544 -501 -179 0
501 -544 -179 0
486 -470 -181 0
470 -486 -181 0
450 -572 -183 0
572 -450 -183 0
574 -485 -185 0
485 -574 -185 0
542 -547 -187 0
547 -542 -187 0
553 -588 -189 0
588 -553 -189 0
562 -516 -191 0
516 -562 -191 0
552 -539 -193 0
539 -552 -193 0
560 -514 -195 0
514 -560 -195 0
509 -542 -197 0
542 -509 -197 0
518 -434 -199 0
434 -518 -199 0
523 -561 -201 0
561 -523 -201 0
541 -440 -203 0
440 -541 -203 0
539 -437 -205 0
437 -539 -205 0
589 -501 -207 0
501 -589 -207 0
489 -500 -209 0
500 -489 -209 0
604 -576 -211 0
576 -604 -211 0
562 -490 -213 0
490 -562 -213 0
480 -465 -215 0
465 -480 -215 0
518 -467 -217 0
467 -518 -217 0
435 -591 -219 0
591 -435 -219 0
455 -600 -221 0
600 -455 -221 0
542 -473 -223 0
473 -542 -223 0
570 -499 -225 0
499 -570 -225 0
569 -575 -227 0
575 -569 -227 0
498 -491 -229 0
491 -498 -229 0
457 -465 -231 0
465 -457 -231 0
441 -481 -233 0
481 -441 -233 0
491 -435 -235 0
435 -491 -235 0
546 -523 -237 0
523 -546 -237 0
543 -451 -239 0
451 -543 -239 0
537 -462 -241 0
462 -537 -241 0
488 -428 -243 0
428 -488 -243 0
493 -428 -245 0
428 -493 -245 0
508 -494 -247 0
494 -508 -247 0
579 -485 -249 0
485 -579 -249 0
580 -463 -251 0
463 -580 -251 0
493 -461 -253 0
461 -493 -253 0
444 -522 -255 0
522 -444 -255 0
444 -568 -257 0
568 -444 -257 0
442 -530 -259 0
530 -442 -259 0
442 -487 -261 0
487 -442 -261 0
497 -574 -263 0
574 -497 -263 0
425 -456 -265 0
456 -425 -265 0
560 -565 -267 0
565 -560 -267 0
574 -529 -269 0
529 -574 -269 0
549 -576 -271 0
576 -549 -271 0
475 -518 -273 0
518 -475 -273 0
470 -529 -275 0
529 -470 -275 0
548 -595 -277 0
595 -548 -277 0
601 -575 -279 0
575 -601 -279 0
474 -535 -281 0
535 -474 -281 0
553 -606 -283 0
606 -553 -283 0
574 -487 -285 0
487 -574 -285 0
492 -459 -287 0
459 -492 -287 0
488 -525 -289 0
525 -488 -289 0
572 -600 -291 0
600 -572 -291 0
451 -472 -293 0
472 -451 -293 0
581 -602 -295 0
602 -581 -295 0
439 -585 -297 0
585 -439 -297 0
442 -595 -299 0
595 -442 -299 0
567 -440 -301 0
440 -567 -301 0
436 -516 -303 0
516 -436 -303 0
478 -490 -305 0
490 -478 -305 0
527 -594 -307 0
594 -527 -307 0
471 -595 -309 0
595 -471 -309 0
432 -430 -311 0
430 -432 -311 0
553 -482 -313 0
482 -553 -313 0
492 -438 -315 0
438 -492 -315 0
590 -448 -317 0
448 -590 -317 0
590 -591 -319 0
591 -590 -319 0
580 -500 -321 0
500 -580 -321 0
499 -460 -323 0
460 -499 -323 0
528 -443 -325 0
443 -528 -325 0
477 -593 -327 0
593 -477 -327 0
546 -523 -329 0
523 -546 -329 0
524 -467 -331 0
467 -524 -331 0
483 -469 -333 0
469 -483 -333 0
551 -500 -335 0
500 -551 -335 0
512 -454 -337 0
454 -512 -337 0
602 -576 -339 0
576 -602 -339 0
430 -461 -341 0
461 -430 -341 0
446 -534 -343 0
534 -446 -343 0
441 -525 -345 0
525 -441 -345 0
549 -438 -347 0
438 -549 -347 0
591 -584 -349 0
584 -591 -349 0
556 -603 -351 0
603 -556 -351 0
577 -595 -353 0
595 -577 -353 0
553 -437 -355 0
437 -553 -355 0
462 -456 -357 0
456 -462 -357 0
563 -512 -359 0
512 -563 -359 0
458 -451 -361 0
451 -458 -361 0
520 -587 -363 0
587 -520 -363 0
432 -447 -365 0
447 -432 -365 0
542 -488 -367 0
488 -542 -367 0
571 -532 -369 0
532 -571 -369 0
496 -586 -371 0
586 -496 -371 0
502 -542 -373 0
542 -502 -373 0
453 -456 -375 0
456 -453 -375 0
593 -440 -377 0
440 -593 -377 0
537 -503 -379 0
503 -537 -379 0
517 -431 -381 0
431 -517 -381 0
556 -426 -383 0
426 -556 -383 0
550 -449 -385 0
449 -550 -385 0
562 -516 -387 0
516 -562 -387 0
518 -474 -389 0
474 -518 -389 0
475 -600 -391 0
600 -475 -391 0
496 -566 -393 0
566 -496 -393 0
446 -479 -395 0
479 -446 -395 0
546 -440 -397 0
440 -546 -397 0
491 -555 -399 0
555 -491 -399 0
585 -556 -401 0
556 -585 -401 0
551 -526 -403 0
526 -551 -403 0
541 -472 -405 0
472 -541 -405 0
583 -480 -407 0
480 -583 -407 0
599 -544 -409 0
544 -599 -409 0
561 -465 -411 0
465 -561 -411 0
585 -505 -413 0
505 -585 -413 0
507 -438 -415 0
438 -507 -415 0
513 -448 -417 0
448 -513 -417 0
559 -433 -419 0
433 -559 -419 0
538 -478 -421 0
478 -538 -421 0
547 -428 -423 0
428 -547 -423 0

